\ LP format - for model browsing. Use MPS format to capture full model detail.
Minimize
  z[0] + z[1] + z[2] + z[3] + z[4] + z[5] + z[6] + z[7] + z[8] + z[9]
   + z[10] + z[11] + z[12] + z[13] + z[14] + z[15] + z[16] + z[17] + z[18]
   + z[19] + z[20] + z[21] + z[22] + z[23]
Subject To
 R0: - x[0] - x[17] - x[18] - x[19] - x[20] - x[21] - x[22] - x[23] - z[0]
   <= -6
 R1: x[0] + x[17] + x[18] + x[19] + x[20] + x[21] + x[22] + x[23] - z[0]
   <= 6
 R2: z[0] >= 0
 R3: - x[0] - x[1] - x[18] - x[19] - x[20] - x[21] - x[22] - x[23] - z[1]
   <= -6
 R4: x[0] + x[1] + x[18] + x[19] + x[20] + x[21] + x[22] + x[23] - z[1]
   <= 6
 R5: z[1] >= 0
 R6: - x[0] - x[1] - x[2] - x[19] - x[20] - x[21] - x[22] - x[23] - z[2]
   <= -6
 R7: x[0] + x[1] + x[2] + x[19] + x[20] + x[21] + x[22] + x[23] - z[2]
   <= 6
 R8: z[2] >= 0
 R9: - x[0] - x[1] - x[2] - x[3] - x[20] - x[21] - x[22] - x[23] - z[3]
   <= -6
 R10: x[0] + x[1] + x[2] + x[3] + x[20] + x[21] + x[22] + x[23] - z[3]
   <= 6
 R11: z[3] >= 0
 R12: - x[0] - x[1] - x[2] - x[3] - x[4] - x[21] - x[22] - x[23] - z[4]
   <= -6
 R13: x[0] + x[1] + x[2] + x[3] + x[4] + x[21] + x[22] + x[23] - z[4] <= 6
 R14: z[4] >= 0
 R15: - x[0] - x[1] - x[2] - x[3] - x[4] - x[5] - x[22] - x[23] - z[5]
   <= -8
 R16: x[0] + x[1] + x[2] + x[3] + x[4] + x[5] + x[22] + x[23] - z[5] <= 8
 R17: z[5] >= 0
 R18: - x[0] - x[1] - x[2] - x[3] - x[4] - x[5] - x[6] - x[23] - z[6]
   <= -9
 R19: x[0] + x[1] + x[2] + x[3] + x[4] + x[5] + x[6] + x[23] - z[6] <= 9
 R20: z[6] >= 0
 R21: - x[0] - x[1] - x[2] - x[3] - x[4] - x[5] - x[6] - x[7] - z[7]
   <= -12
 R22: x[0] + x[1] + x[2] + x[3] + x[4] + x[5] + x[6] + x[7] - z[7] <= 12
 R23: z[7] >= 0
 R24: - x[1] - x[2] - x[3] - x[4] - x[5] - x[6] - x[7] - x[8] - z[8]
   <= -18
 R25: x[1] + x[2] + x[3] + x[4] + x[5] + x[6] + x[7] + x[8] - z[8] <= 18
 R26: z[8] >= 0
 R27: - x[2] - x[3] - x[4] - x[5] - x[6] - x[7] - x[8] - x[9] - z[9]
   <= -22
 R28: x[2] + x[3] + x[4] + x[5] + x[6] + x[7] + x[8] + x[9] - z[9] <= 22
 R29: z[9] >= 0
 R30: - x[3] - x[4] - x[5] - x[6] - x[7] - x[8] - x[9] - x[10] - z[10]
   <= -25
 R31: x[3] + x[4] + x[5] + x[6] + x[7] + x[8] + x[9] + x[10] - z[10] <= 25
 R32: z[10] >= 0
 R33: - x[4] - x[5] - x[6] - x[7] - x[8] - x[9] - x[10] - x[11] - z[11]
   <= -21
 R34: x[4] + x[5] + x[6] + x[7] + x[8] + x[9] + x[10] + x[11] - z[11]
   <= 21
 R35: z[11] >= 0
 R36: - x[5] - x[6] - x[7] - x[8] - x[9] - x[10] - x[11] - x[12] - z[12]
   <= -21
 R37: x[5] + x[6] + x[7] + x[8] + x[9] + x[10] + x[11] + x[12] - z[12]
   <= 21
 R38: z[12] >= 0
 R39: - x[6] - x[7] - x[8] - x[9] - x[10] - x[11] - x[12] - x[13] - z[13]
   <= -20
 R40: x[6] + x[7] + x[8] + x[9] + x[10] + x[11] + x[12] + x[13] - z[13]
   <= 20
 R41: z[13] >= 0
 R42: - x[7] - x[8] - x[9] - x[10] - x[11] - x[12] - x[13] - x[14] - z[14]
   <= -18
 R43: x[7] + x[8] + x[9] + x[10] + x[11] + x[12] + x[13] + x[14] - z[14]
   <= 18
 R44: z[14] >= 0
 R45: - x[8] - x[9] - x[10] - x[11] - x[12] - x[13] - x[14] - x[15] - z[15]
   <= -21
 R46: x[8] + x[9] + x[10] + x[11] + x[12] + x[13] + x[14] + x[15] - z[15]
   <= 21
 R47: z[15] >= 0
 R48: - x[9] - x[10] - x[11] - x[12] - x[13] - x[14] - x[15] - x[16]
   - z[16] <= -21
 R49: x[9] + x[10] + x[11] + x[12] + x[13] + x[14] + x[15] + x[16] - z[16]
   <= 21
 R50: z[16] >= 0
 R51: - x[10] - x[11] - x[12] - x[13] - x[14] - x[15] - x[16] - x[17]
   - z[17] <= -24
 R52: x[10] + x[11] + x[12] + x[13] + x[14] + x[15] + x[16] + x[17] - z[17]
   <= 24
 R53: z[17] >= 0
 R54: - x[11] - x[12] - x[13] - x[14] - x[15] - x[16] - x[17] - x[18]
   - z[18] <= -24
 R55: x[11] + x[12] + x[13] + x[14] + x[15] + x[16] + x[17] + x[18] - z[18]
   <= 24
 R56: z[18] >= 0
 R57: - x[12] - x[13] - x[14] - x[15] - x[16] - x[17] - x[18] - x[19]
   - z[19] <= -18
 R58: x[12] + x[13] + x[14] + x[15] + x[16] + x[17] + x[18] + x[19] - z[19]
   <= 18
 R59: z[19] >= 0
 R60: - x[13] - x[14] - x[15] - x[16] - x[17] - x[18] - x[19] - x[20]
   - z[20] <= -18
 R61: x[13] + x[14] + x[15] + x[16] + x[17] + x[18] + x[19] + x[20] - z[20]
   <= 18
 R62: z[20] >= 0
 R63: - x[14] - x[15] - x[16] - x[17] - x[18] - x[19] - x[20] - x[21]
   - z[21] <= -18
 R64: x[14] + x[15] + x[16] + x[17] + x[18] + x[19] + x[20] + x[21] - z[21]
   <= 18
 R65: z[21] >= 0
 R66: - x[15] - x[16] - x[17] - x[18] - x[19] - x[20] - x[21] - x[22]
   - z[22] <= -12
 R67: x[15] + x[16] + x[17] + x[18] + x[19] + x[20] + x[21] + x[22] - z[22]
   <= 12
 R68: z[22] >= 0
 R69: - x[16] - x[17] - x[18] - x[19] - x[20] - x[21] - x[22] - x[23]
   - z[23] <= -8
 R70: x[16] + x[17] + x[18] + x[19] + x[20] + x[21] + x[22] + x[23] - z[23]
   <= 8
 R71: z[23] >= 0
Bounds
Generals
 x[0] x[1] x[2] x[3] x[4] x[5] x[6] x[7] x[8] x[9] x[10] x[11] x[12] x[13]
 x[14] x[15] x[16] x[17] x[18] x[19] x[20] x[21] x[22] x[23] z[0] z[1] z[2]
 z[3] z[4] z[5] z[6] z[7] z[8] z[9] z[10] z[11] z[12] z[13] z[14] z[15]
 z[16] z[17] z[18] z[19] z[20] z[21] z[22] z[23]
End
